DIM: 32
FLOW: 
0 0 2 2 0 0 2 1 2 0 0 0 2 2 2 2 2 0 1 1 0 0 0 1 2 2 0 0 0 2 0 0 
0 0 0 0 0 0 0 0 0 0 0 0 0 0 0 0 0 0 0 0 0 0 0 0 0 0 0 0 0 0 0 0 
2 0 0 2 0 0 3 2 2 0 0 0 2 2 2 2 2 0 1 1 0 0 0 1 1 1 0 0 0 1 0 0 
2 0 2 0 0 0 3 1 2 0 0 0 2 2 2 2 2 0 1 1 0 0 0 1 1 1 0 0 0 1 0 0 
0 0 0 0 0 0 0 0 0 0 0 0 0 0 0 0 0 0 0 0 0 0 0 0 0 0 0 0 0 0 0 0 
0 0 0 0 0 0 0 0 0 0 0 0 0 0 0 0 0 0 0 0 0 0 0 0 0 0 0 0 0 0 0 0 
2 0 3 3 0 0 0 1 2 0 0 0 2 2 2 2 2 0 1 1 0 0 0 1 1 1 0 0 0 1 0 0 
1 0 2 1 0 0 1 0 4 0 2 2 1 1 1 1 1 0 1 1 0 0 0 1 1 1 0 0 0 1 0 0 
2 0 2 2 0 0 2 4 0 0 1 1 2 2 2 2 2 0 1 1 0 0 0 1 1 1 0 0 0 1 0 0 
0 0 0 0 0 0 0 0 0 0 0 0 0 0 0 0 0 0 0 0 0 0 0 0 0 0 0 0 0 0 0 0 
0 0 0 0 0 0 0 2 1 0 0 3 0 0 0 0 0 0 0 0 0 0 0 0 0 0 0 0 0 0 0 0 
0 0 0 0 0 0 0 2 1 0 3 0 0 0 0 0 0 0 0 0 0 0 0 0 0 0 0 0 0 0 0 0 
2 0 2 2 0 0 2 1 2 0 0 0 0 2 2 2 2 0 1 1 0 0 0 1 1 1 0 0 0 1 0 0 
2 0 2 2 0 0 2 1 2 0 0 0 2 0 2 2 2 0 1 1 0 0 0 1 1 1 0 0 0 1 0 0 
2 0 2 2 0 0 2 1 2 0 0 0 2 2 0 2 2 0 1 1 0 0 0 1 1 1 0 0 0 1 0 0 
2 0 2 2 0 0 2 1 2 0 0 0 2 2 2 0 3 0 1 1 0 0 0 1 1 1 0 0 0 1 0 0 
2 0 2 2 0 0 2 1 2 0 0 0 2 2 2 3 0 0 1 1 0 0 0 1 1 1 0 0 0 1 0 0 
0 0 0 0 0 0 0 0 0 0 0 0 0 0 0 0 0 0 0 0 0 0 0 0 0 0 0 0 0 0 0 0 
1 0 1 1 0 0 1 1 1 0 0 0 1 1 1 1 1 0 0 1 0 0 0 2 1 1 0 0 0 1 0 0 
1 0 1 1 0 0 1 1 1 0 0 0 1 1 1 1 1 0 1 0 0 0 0 2 1 1 0 0 0 1 0 0 
0 0 0 0 0 0 0 0 0 0 0 0 0 0 0 0 0 0 0 0 0 0 0 0 0 0 0 0 0 0 0 0 
0 0 0 0 0 0 0 0 0 0 0 0 0 0 0 0 0 0 0 0 0 0 0 0 0 0 0 0 0 0 0 0 
0 0 0 0 0 0 0 0 0 0 0 0 0 0 0 0 0 0 0 0 0 0 0 0 0 0 0 0 0 0 0 0 
1 0 1 1 0 0 1 1 1 0 0 0 1 1 1 1 1 0 2 2 0 0 0 0 1 1 0 0 0 1 0 0 
2 0 1 1 0 0 1 1 1 0 0 0 1 1 1 1 1 0 1 1 0 0 0 1 0 4 0 0 0 5 0 0 
2 0 1 1 0 0 1 1 1 0 0 0 1 1 1 1 1 0 1 1 0 0 0 1 4 0 0 0 0 5 0 0 
0 0 0 0 0 0 0 0 0 0 0 0 0 0 0 0 0 0 0 0 0 0 0 0 0 0 0 0 0 0 0 0 
0 0 0 0 0 0 0 0 0 0 0 0 0 0 0 0 0 0 0 0 0 0 0 0 0 0 0 0 0 0 0 0 
0 0 0 0 0 0 0 0 0 0 0 0 0 0 0 0 0 0 0 0 0 0 0 0 0 0 0 0 0 0 0 0 
2 0 1 1 0 0 1 1 1 0 0 0 1 1 1 1 1 0 1 1 0 0 0 1 5 5 0 0 0 0 0 0 
0 0 0 0 0 0 0 0 0 0 0 0 0 0 0 0 0 0 0 0 0 0 0 0 0 0 0 0 0 0 0 0 
0 0 0 0 0 0 0 0 0 0 0 0 0 0 0 0 0 0 0 0 0 0 0 0 0 0 0 0 0 0 0 0 
FLOW: 
0 0 1 0 1 0 2 1 1 0 2 1 2 1 3 2 1 0 2 1 2 1 3 2 2 1 3 2 3 2 4 3 
0 1 0 0 1 2 0 1 1 2 0 1 2 3 1 2 1 2 0 1 2 3 1 2 2 3 1 2 3 4 2 3 
1 0 0 0 2 1 1 0 2 1 1 0 3 2 2 1 2 1 1 0 3 2 2 1 3 2 2 1 4 3 3 2 
0 1 1 2 0 0 0 1 1 2 2 3 0 1 1 2 1 2 2 3 0 1 1 2 2 3 3 4 1 2 2 3 
1 0 2 1 0 0 1 0 2 1 3 2 1 0 2 1 2 1 3 2 1 0 2 1 3 2 4 3 2 1 3 2 
1 2 0 1 0 1 0 0 2 3 1 2 1 2 0 1 2 3 1 2 1 2 0 1 3 4 2 3 2 3 1 2 
2 1 1 0 1 0 0 0 3 2 2 1 2 1 1 0 3 2 2 1 2 1 1 0 4 3 3 2 3 2 2 1 
0 1 1 2 1 2 2 3 0 0 0 1 0 1 1 2 1 2 2 3 2 3 3 4 0 1 1 2 1 2 2 3 
1 0 2 1 2 1 3 2 0 0 1 0 1 0 2 1 2 1 3 2 3 2 4 3 1 0 2 1 2 1 3 2 
1 2 0 1 2 3 1 2 0 1 0 0 1 2 0 1 2 3 1 2 3 4 2 3 1 2 0 1 2 3 1 2 
2 1 1 0 3 2 2 1 1 0 0 0 2 1 1 0 3 2 2 1 4 3 3 2 2 1 1 0 3 2 2 1 
1 2 2 3 0 1 1 2 0 1 1 2 0 0 0 1 2 3 3 4 1 2 2 3 1 2 2 3 0 1 1 2 
2 1 3 2 1 0 2 1 1 0 2 1 0 0 1 0 3 2 4 3 2 1 3 2 2 1 3 2 1 0 2 1 
2 3 1 2 1 2 0 1 1 2 0 1 0 1 0 0 3 4 2 3 2 3 1 2 2 3 1 2 1 2 0 1 
3 2 2 1 2 1 1 0 2 1 1 0 1 0 0 0 4 3 3 2 3 2 2 1 3 2 2 1 2 1 1 0 
0 1 1 2 1 2 2 3 1 2 2 3 2 3 3 4 0 0 0 1 0 1 1 2 0 1 1 2 1 2 2 3 
1 0 2 1 2 1 3 2 2 1 3 2 3 2 4 3 0 0 1 0 1 0 2 1 1 0 2 1 2 1 3 2 
1 2 0 1 2 3 1 2 2 3 1 2 3 4 2 3 0 1 0 0 1 2 0 1 1 2 0 1 2 3 1 2 
2 1 1 0 3 2 2 1 3 2 2 1 4 3 3 2 1 0 0 0 2 1 1 0 2 1 1 0 3 2 2 1 
1 2 2 3 0 1 1 2 2 3 3 4 1 2 2 3 0 1 1 2 0 0 0 1 1 2 2 3 0 1 1 2 
2 1 3 2 1 0 2 1 3 2 4 3 2 1 3 2 1 0 2 1 0 0 1 0 2 1 3 2 1 0 2 1 
2 3 1 2 1 2 0 1 3 4 2 3 2 3 1 2 1 2 0 1 0 1 0 0 2 3 1 2 1 2 0 1 
3 2 2 1 2 1 1 0 4 3 3 2 3 2 2 1 2 1 1 0 1 0 0 0 3 2 2 1 2 1 1 0 
1 2 2 3 2 3 3 4 0 1 1 2 1 2 2 3 0 1 1 2 1 2 2 3 0 0 0 1 0 1 1 2 
2 1 3 2 3 2 4 3 1 0 2 1 2 1 3 2 1 0 2 1 2 1 3 2 0 0 1 0 1 0 2 1 
2 3 1 2 3 4 2 3 1 2 0 1 2 3 1 2 1 2 0 1 2 3 1 2 0 1 0 0 1 2 0 1 
3 2 2 1 4 3 3 2 2 1 1 0 3 2 2 1 2 1 1 0 3 2 2 1 1 0 0 0 2 1 1 0 
2 3 3 4 1 2 2 3 1 2 2 3 0 1 1 2 1 2 2 3 0 1 1 2 0 1 1 2 0 0 0 1 
3 2 4 3 2 1 3 2 2 1 3 2 1 0 2 1 2 1 3 2 1 0 2 1 1 0 2 1 0 0 1 0 
3 4 2 3 2 3 1 2 2 3 1 2 1 2 0 1 2 3 1 2 1 2 0 1 1 2 0 1 0 1 0 0 
4 3 3 2 3 2 2 1 3 2 2 1 2 1 1 0 3 2 2 1 2 1 1 0 2 1 1 0 1 0 0 0 

OPT_OBJ:  438 
OPT_SOLUTION: 
1 19 29 22 12 4 30 25 9 7 27 11 21 6 5 13 14 31 10 28 8 3 23 26 17 2 32 15 24 18 20 16